c ---- [ banner ] ------------------------------------------------------------
c
c Kissat SAT Solver
c 
c Copyright (c) 2021-2024 Armin Biere University of Freiburg
c Copyright (c) 2019-2021 Armin Biere Johannes Kepler University Linz
c 
c Version 4.0.1 43f02cf3e992cb44653b35e5cb26f93281552ae0
c gcc (Ubuntu 13.2.0-23ubuntu4) 13.2.0 -W -Wall -O3 -DNDEBUG
c Thu Sep 12 12:27:46 CEST 2024 Linux abryzen9 6.8.0-41-generic x86_64
c
c ---- [ parsing ] -----------------------------------------------------------
c
c opened and reading DIMACS file:
c
c   /data/artifact/AMulet2.0_artifact/exp4/cnf_resyn3_64/64_64_U1_4to2_BK_Multgen_resyn3.cnf
c
c parsed 'p cnf 18688 71689' header
c closing input after reading 1383262 bytes (1 MB)
c finished parsing after 0.01 seconds
c
c ---- [ options ] -----------------------------------------------------------
c
c --stable=0                       (different from default '1')
c
c ---- [ solving ] -----------------------------------------------------------
c
c  seconds switched rate     size/glue tier1  binary          remaining
c         MB reductions conflicts size  tier2     irredundant
c          level restarts redundant glue  trail          variables
c
c *  0.01  7 0 0 0  0 0   0   0 0.0 0 0 0 0 0% 10899 60788 18685 100%
c (  0.02  8 0 0 0  0 0   0   0 0.0 0 0 0 0 0% 10899 60788 18685 100%
c .  0.02  8 0 0 0  0 0   0   0 0.0 0 0 0 0 0% 10895 60788 18685 100%
c c  0.05 12 0 0 0  0 0   0   0 0.0 0 0 0 0 0% 11079 60481 18570 99%
c d  0.05 12 0 0 0  0 0   0   0 0.0 0 0 0 0 0% 10841 60481 18570 99%
c =  0.07 12 0 0 0  0 0   0   0 0.0 0 0 0 0 0% 10820 60477 18565 99%
c d  0.08 12 0 0 0  0 0   0   0 0.0 0 0 0 0 0% 10810 60477 18565 99%
c f  0.10 11 0 0 0  0 0   0   0 0.0 0 0 0 0 0% 10796 60451 18578 99%
c e  0.15 16 0 0 0  0 0   0   0 0.0 0 0 0 0 0% 4321 63808 13249 71%
c )  0.15 16 0 0 0  0 0   0   0 0.0 0 0 0 0 0% 4321 63808 13249 71%
c {  0.16 16 0 0 0  0 0   0   0 0.0 0 0 2 6 0% 4321 63808 13249 71%
c -  0.20 16 100 0 1 252 22 1001 793 1.7 8 5 4 9 15% 4362 63804 13249 71%
c -  0.25 16 124 0 2 403 22 2006 1473 1.8 9 5 3 8 20% 4377 63803 13249 71%
c c  0.31 16 129 0 2 472 22 2513 1958 1.8 9 5 3 9 22% 4426 63717 13223 71%
c d  0.31 16 129 0 2 472 22 2513 1958 1.8 9 5 3 9 22% 4374 63717 13223 71%
c b  0.32 16 129 0 2 472 22 2513 1958 1.8 9 5 3 9 22% 4374 63717 13220 71%
c u  0.32 16 129 0 2 472 22 2513 1385 1.8 9 5 3 9 22% 4349 63717 13220 71%
c v  0.33 16 129 0 2 472 22 2513 1264 1.8 9 5 3 9 22% 4349 63717 13220 71%
c w  0.33 16 129 0 2 472 22 2513 1263 1.8 9 5 3 9 22% 4349 63717 13220 71%
c x  0.34 16 129 0 2 472 22 2513 1263 1.8 9 5 3 9 22% 4430 63511 13214 71%
c
c  seconds   switched   rate       size/glue tier1   binary         remaining
c         MB  reductions conflicts      size  tier2     irredundant
c           level restarts    redundant   glue   trail         variables
c
c =  0.38 16 129 0 2 472 22 2513 1263 1.8 9 5 3 9 22% 4574 63287 13113 70%
c d  0.38 16 129 0 2 472 22 2513 1253 1.8 9 5 3 9 22% 4446 63254 13107 70%
c t  0.38 16 129 0 2 472 22 2513 1253 1.8 9 5 3 9 22% 4355 63254 13107 70%
c f  0.39 16 129 0 2 472 22 2513 1253 1.8 9 5 3 9 22% 4634 62809 13254 71%
c c  0.42 16 129 0 2 472 22 2513 1251 1.8 9 5 3 9 22% 4630 62770 13235 71%
c d  0.42 16 129 0 2 472 22 2513 1251 1.8 9 5 3 9 22% 4592 62770 13235 71%
c u  0.43 16 129 0 2 472 22 2513 1207 1.8 9 5 3 9 22% 4577 62770 13235 71%
c v  0.43 16 129 0 2 472 22 2513 1108 1.8 9 5 3 9 22% 4577 62770 13235 71%
c w  0.44 16 129 0 2 472 22 2513 1102 1.8 9 5 3 9 22% 4577 62770 13235 71%
c x  0.45 16 129 0 2 472 22 2513 1102 1.8 9 5 3 9 22% 4582 62751 13235 71%
c =  0.47 16 129 0 2 472 22 2513 1102 1.8 9 5 3 9 22% 4592 62743 13229 71%
c d  0.48 16 129 0 2 472 22 2513 1100 1.8 9 5 3 9 22% 4581 62743 13229 71%
c t  0.48 16 129 0 2 472 22 2513 1100 1.8 9 5 3 9 22% 4576 62743 13229 71%
c f  0.49 16 129 0 2 472 22 2513 1100 1.8 9 5 3 9 22% 4949 62182 13416 72%
c i  0.49 16 129 0 2 472 22 2513 1100 1.8 9 5 3 9 22% 4949 62182 13416 72%
c -  0.56 16 128 0 3 606 22 3422 1649 1.9 10 5 3 9 23% 4953 62182 13416 72%
c -  0.67 16 127 0 4 812 21 5155 2776 1.9 10 5 3 9 26% 4963 62182 13416 72%
c -  0.83 16 121 0 5 1109 21 7155 3961 1.9 10 5 3 9 26% 4969 62179 13416 72%
c c  0.92 16 120 0 5 1190 21 7742 4517 1.9 10 6 3 9 26% 4977 62157 13410 72%
c d  0.92 16 120 0 5 1190 21 7742 4515 1.9 10 6 3 9 26% 4965 62157 13410 72%
c
c  seconds   switched    rate       size/glue tier1    binary         remaining
c         MB  reductions  conflicts       size  tier2     irredundant
c           level  restarts    redundant    glue   trail         variables
c
c b  0.92 16 120 0 5 1190 21 7742 4515 1.9 10 6 3 9 26% 4965 62157 13409 72%
c u  0.93 16 120 0 5 1190 21 7742 3317 1.9 10 6 3 9 26% 4964 62157 13409 72%
c v  0.95 16 120 0 5 1190 21 7742 2907 1.9 10 6 3 9 26% 4964 62157 13409 72%
c w  0.96 16 120 0 5 1190 21 7742 2904 1.9 10 6 3 9 26% 4964 62157 13409 72%
c t  1.02 16 120 0 5 1190 21 7742 2904 1.9 10 6 3 9 26% 4965 62150 13409 72%
c f  1.03 16 120 0 5 1190 21 7742 2904 1.9 10 6 3 9 26% 5861 60798 13857 74%
c d  1.04 16 120 0 5 1190 21 7742 2904 1.9 10 6 3 9 26% 5857 60797 13855 74%
c u  1.05 16 120 0 5 1190 21 7742 2779 1.9 10 6 3 9 26% 5857 60797 13855 74%
c v  1.06 16 120 0 5 1190 21 7742 2654 1.9 10 6 3 9 26% 5857 60797 13855 74%
c w  1.07 16 120 0 5 1190 21 7742 2647 1.9 10 6 3 9 26% 5857 60797 13855 74%
c x  1.08 16 120 0 5 1190 21 7742 2647 1.9 10 6 3 9 26% 5862 60684 13855 74%
c t  1.09 16 120 0 5 1190 21 7742 2647 1.9 10 6 3 9 26% 5860 60684 13855 74%
c f  1.10 16 120 0 5 1190 21 7742 2647 1.9 10 6 3 9 26% 7146 58755 14498 78%
c -  1.22 16 117 0 6 1377 21 9392 3438 1.9 11 6 3 9 26% 7154 58755 14498 78%
c o  1.27 16 117 0 6 1416 19 10576 4532 1.9 11 6 3 9 27% 7157 58752 14498 78%
c -  1.34 16 116 0 7 1516 19 11841 4893 1.9 11 6 3 9 27% 7164 58751 14498 78%
c s  1.42 17 116 0 7 1602 19 12562 5565 1.9 11 6 3 9 27% 7173 58389 14498 78%
c e  1.48 17 116 0 7 1602 19 12562 5565 1.9 11 6 3 9 27% 6273 58645 13220 71%
c s  1.49 17 116 0 7 1602 19 12562 5565 1.9 11 6 3 9 27% 6274 58582 13220 71%
c e  1.49 17 116 0 7 1602 19 12562 5565 1.9 11 6 3 9 27% 6258 58587 13209 71%
c
c  seconds   switched    rate        size/glue tier1    binary         remaining
c         MB  reductions   conflicts       size  tier2     irredundant
c           level  restarts     redundant    glue   trail         variables
c
c ^  1.49 17 116 0 7 1602 19 12562 5565 1.9 11 6 3 9 27% 6258 58587 13209 71%
c -  1.58 17 113 0 8 1722 18 14486 5086 1.9 11 6 3 8 27% 6296 58581 13209 71%
c c  1.65 17 108 0 8 1795 17 15866 6187 1.9 10 6 3 8 25% 6360 58428 13169 70%
c d  1.65 17 108 0 8 1795 17 15866 5913 1.9 10 6 3 8 25% 6280 58428 13169 70%
c u  1.67 17 108 0 8 1795 17 15866 5274 1.9 10 6 3 8 25% 6269 58428 13169 70%
c v  1.68 17 108 0 8 1795 17 15866 5109 1.9 10 6 3 8 25% 6269 58428 13169 70%
c w  1.68 17 108 0 8 1795 17 15866 5103 1.9 10 6 3 8 25% 6269 58428 13169 70%
c x  1.69 17 108 0 8 1795 17 15866 5103 1.9 10 6 3 8 25% 6269 58418 13169 70%
c d  1.75 17 108 0 8 1795 17 15866 5099 1.9 10 6 3 8 25% 6267 58418 13168 70%
c t  1.75 17 108 0 8 1795 17 15866 5099 1.9 10 6 3 8 25% 6262 58418 13168 70%
c f  1.77 17 108 0 8 1795 17 15866 5099 1.9 10 6 3 8 25% 6304 58323 13192 71%
c u  1.81 17 108 0 8 1795 17 15866 3993 1.9 10 6 3 8 25% 6311 58323 13192 71%
c v  1.82 17 108 0 8 1795 17 15866 3639 1.9 10 6 3 8 25% 6311 58323 13192 71%
c w  1.83 17 108 0 8 1795 17 15866 3613 1.9 10 6 3 8 25% 6311 58323 13192 71%
c d  1.83 17 108 0 8 1795 17 15866 3608 1.9 10 6 3 8 25% 6309 58323 13191 71%
c f  1.86 17 108 0 8 1795 17 15866 3608 1.9 10 6 3 8 25% 6329 58277 13201 71%
c -  2.01 17 107 0 9 1984 17 17315 4108 1.9 10 6 3 8 26% 6335 58277 13201 71%
c i  2.03 17 107 0 9 2004 17 17479 4243 1.9 10 6 3 8 26% 6342 58277 13200 71%
c -  2.20 17 104 0 10 2224 16 20315 5699 1.9 10 6 3 8 25% 6366 58269 13200 71%
c o  2.22 17 105 0 10 2247 16 20577 5943 1.9 10 6 3 8 25% 6366 58269 13200 71%
c
c  seconds   switched     rate        size/glue tier1    binary         remaining
c         MB   reductions   conflicts       size  tier2     irredundant
c           level   restarts     redundant    glue   trail         variables
c
c i  2.42 17 107 0 10 2505 16 23310 8489 1.9 10 6 3 8 26% 6383 58267 13199 71%
c -  2.43 17 107 0 11 2513 16 23477 7046 1.9 10 6 2 8 26% 6385 58267 13199 71%
c s  2.61 17 105 0 11 2737 16 25141 8591 1.9 10 6 2 8 25% 6392 58215 13199 71%
c e  2.71 17 105 0 11 2737 16 25141 8591 1.9 10 6 2 8 25% 3103 63141 11331 61%
c 2  2.71 17 105 0 11 2737 16 25141 8591 1.9 10 6 2 8 25% 3102 63141 11331 61%
c s  2.72 17 105 0 11 2737 16 25141 8591 1.9 10 6 2 8 25% 3123 63010 11331 61%
c e  2.73 17 105 0 11 2737 16 25141 8591 1.9 10 6 2 8 25% 3105 63013 11320 61%
c ^  2.73 17 105 0 11 2737 16 25141 8591 1.9 10 6 2 8 25% 3105 63013 11320 61%
c -  2.94 17 106 0 12 2855 16 26794 5854 1.8 10 6 2 8 26% 3111 63013 11320 61%
c d  2.99 17 106 0 12 2887 16 27064 6117 1.8 10 6 2 8 26% 3109 63013 11319 61%
c u  3.03 17 106 0 12 2887 16 27064 4660 1.8 10 6 2 8 26% 3117 63013 11319 61%
c v  3.06 17 106 0 12 2887 16 27064 3503 1.8 10 6 2 8 26% 3117 63013 11319 61%
c w  3.07 17 106 0 12 2887 16 27064 3501 1.8 10 6 2 8 26% 3117 63013 11319 61%
c x  3.11 17 106 0 12 2887 16 27064 3500 1.8 10 6 2 8 26% 3148 62927 11319 61%
c d  3.11 17 106 0 12 2887 16 27064 3500 1.8 10 6 2 8 26% 3144 62927 11317 61%
c t  3.12 17 106 0 12 2887 16 27064 3500 1.8 10 6 2 8 26% 3114 62927 11317 61%
c f  3.16 17 106 0 12 2887 16 27064 3500 1.8 10 6 2 8 26% 3159 62796 11341 61%
c c  3.20 17 106 0 12 2887 16 27064 3484 1.8 10 6 2 8 26% 3181 62726 11329 61%
c d  3.20 17 106 0 12 2887 16 27064 3484 1.8 10 6 2 8 26% 3157 62726 11329 61%
c u  3.22 17 106 0 12 2887 16 27064 3314 1.8 10 6 2 8 26% 3154 62726 11329 61%
c
c  seconds   switched     rate        size/glue tier1    binary         remaining
c         MB   reductions   conflicts       size  tier2     irredundant
c           level   restarts     redundant    glue   trail         variables
c
c v  3.25 17 106 0 12 2887 16 27064 3178 1.8 10 6 2 8 26% 3155 62726 11329 61%
c w  3.26 17 106 0 12 2887 16 27064 3170 1.8 10 6 2 8 26% 3155 62726 11329 61%
c =  3.41 17 106 0 12 2887 16 27064 3170 1.8 10 6 2 8 26% 3171 62726 11321 61%
c d  3.42 17 106 0 12 2887 16 27064 3158 1.8 10 6 2 8 26% 3151 62726 11321 61%
c t  3.43 17 106 0 12 2887 16 27064 3158 1.8 10 6 2 8 26% 3148 62726 11321 61%
c f  3.46 17 106 0 12 2887 16 27064 3158 1.8 10 6 2 8 26% 3158 62700 11325 61%
c -  3.84 17 105 0 13 3195 16 30258 5012 1.8 10 6 2 8 26% 3165 62699 11325 61%
c i  4.02 17 105 0 13 3354 16 32347 6827 1.8 10 6 2 8 26% 3184 62699 11323 61%
c i  4.07 17 105 0 13 3421 16 33153 7560 1.8 10 6 2 8 26% 3188 62697 11322 61%
c -  4.16 17 105 0 14 3483 16 33863 6733 1.8 10 6 2 8 26% 3178 62697 11322 61%
c -  4.56 17 105 0 15 4008 16 37604 8350 1.8 10 6 2 8 26% 3191 62697 11322 61%
c i  4.70 17 105 0 15 4250 16 39666 10181 1.8 10 6 2 8 26% 3217 62696 11321 61%
c o  4.76 17 104 0 15 4313 16 40580 11010 1.8 10 6 2 8 25% 3220 62696 11321 61%
c i  4.80 17 104 0 15 4366 16 41259 11614 1.8 10 6 2 8 25% 3230 62696 11320 61%
c c  4.83 17 104 0 15 4377 16 41474 11815 1.8 11 6 2 8 25% 3242 62544 11287 60%
c d  4.83 17 104 0 15 4377 16 41474 11654 1.8 11 6 2 8 25% 3192 62528 11287 60%
c d  4.83 17 104 0 15 4377 16 41474 11641 1.8 11 6 2 8 25% 3178 62528 11280 60%
c u  4.86 17 104 0 15 4377 16 41474 9314 1.8 11 6 2 8 25% 3188 62528 11280 60%
c v  4.90 17 104 0 15 4377 16 41474 8097 1.8 11 6 2 8 25% 3188 62528 11280 60%
c w  4.92 17 104 0 15 4377 16 41474 8078 1.8 11 6 2 8 25% 3188 62528 11280 60%
c
c  seconds   switched     rate        size/glue tier1    binary         remaining
c         MB   reductions   conflicts       size  tier2     irredundant
c           level   restarts     redundant    glue   trail         variables
c
c d  4.92 17 104 0 15 4377 16 41474 8071 1.8 11 6 2 8 25% 3178 62526 11275 60%
c t  4.93 17 104 0 15 4377 16 41474 8071 1.8 11 6 2 8 25% 3174 62526 11275 60%
c f  4.93 17 104 0 15 4377 16 41474 8071 1.8 11 6 2 8 25% 3181 62488 11283 60%
c c  4.96 17 104 0 15 4377 16 41474 8062 1.8 11 6 2 8 25% 3187 62464 11280 60%
c d  4.96 17 104 0 15 4377 16 41474 8062 1.8 11 6 2 8 25% 3181 62464 11280 60%
c u  4.98 17 104 0 15 4377 16 41474 7798 1.8 11 6 2 8 25% 3183 62464 11280 60%
c v  5.01 17 104 0 15 4377 16 41474 6911 1.8 11 6 2 8 25% 3187 62464 11280 60%
c w  5.02 17 104 0 15 4377 16 41474 6902 1.8 11 6 2 8 25% 3187 62464 11280 60%
c x  5.05 17 104 0 15 4377 16 41474 6901 1.8 11 6 2 8 25% 3188 62429 11280 60%
c =  5.18 17 104 0 15 4377 16 41474 6901 1.8 11 6 2 8 25% 3402 62382 11171 60%
c d  5.18 17 104 0 15 4377 16 41474 6752 1.8 11 6 2 8 25% 3171 62382 11171 60%
c t  5.19 17 104 0 15 4377 16 41474 6752 1.8 11 6 2 8 25% 3120 62382 11171 60%
c f  5.19 17 104 0 15 4377 16 41474 6752 1.8 11 6 2 8 25% 3134 62326 11182 60%
c -  5.20 17 104 0 16 4377 16 41476 5366 1.8 11 6 2 8 25% 3131 62326 11182 60%
c -  5.44 17 104 0 17 4792 16 45476 7348 1.8 11 6 2 8 25% 3155 62322 11182 60%
c -  5.61 17 102 0 18 5066 16 49600 9223 1.8 11 6 2 8 25% 3206 62321 11182 60%
c s  5.76 17 102 0 18 5304 15 52399 11773 1.8 11 6 2 8 24% 3228 61816 11182 60%
c e  5.85 17 102 0 18 5304 15 52399 11773 1.8 11 6 2 8 24% 1320 65792 9951 53%
c 2  5.85 17 102 0 18 5304 15 52399 11773 1.8 11 6 2 8 24% 1317 65792 9951 53%
c s  5.86 17 102 0 18 5304 15 52399 11773 1.8 11 6 2 8 24% 1324 65580 9951 53%
c
c  seconds   switched     rate         size/glue tier1    binary        remaining
c         MB   reductions   conflicts        size  tier2     irredundant
c           level   restarts      redundant    glue   trail        variables
c
c e  5.87 17 102 0 18 5304 15 52399 11773 1.8 11 6 2 8 24% 1306 65600 9942 53%
c ^  5.87 17 102 0 18 5304 15 52399 11773 1.8 11 6 2 8 24% 1306 65600 9942 53%
c -  5.96 17 101 0 19 5487 16 53848 8485 1.8 11 6 2 8 24% 1325 65599 9942 53%
c i  6.14 17 100 0 19 5806 15 57023 11406 1.8 11 6 2 8 24% 1341 65597 9941 53%
c -  6.20 17 100 0 20 5894 15 58207 10523 1.8 11 6 2 8 24% 1355 65596 9941 53%
c d  6.23 17 100 0 20 5961 15 59207 11333 1.8 11 6 2 8 23% 1332 65585 9926 53%
c d  6.23 17 100 0 20 5961 15 59207 11332 1.8 11 6 2 8 23% 1330 65585 9925 53%
c u  6.26 17 100 0 20 5961 15 59207 8713 1.8 11 6 2 8 23% 1354 65585 9925 53%
c v  6.29 17 100 0 20 5961 15 59207 7430 1.8 11 6 2 8 23% 1355 65585 9925 53%
c w  6.30 17 100 0 20 5961 15 59207 7412 1.8 11 6 2 8 23% 1355 65585 9925 53%
c =  6.43 17 100 0 20 5961 15 59207 7412 1.8 11 6 2 8 23% 1383 65585 9911 53%
c d  6.43 17 100 0 20 5961 15 59207 7379 1.8 11 6 2 8 23% 1327 65579 9901 53%
c t  6.44 17 100 0 20 5961 15 59207 7379 1.8 11 6 2 8 23% 1302 65579 9901 53%
c b  6.44 17 100 0 20 5961 15 59207 7379 1.8 11 6 2 8 23% 1302 65579 9900 53%
c f  6.47 17 100 0 20 5961 15 59207 7379 1.8 11 6 2 8 23% 1309 65541 9905 53%
c c  6.49 17 100 0 20 5961 15 59207 7348 1.8 11 6 2 8 23% 1321 65495 9898 53%
c d  6.50 17 100 0 20 5961 15 59207 7348 1.8 11 6 2 8 23% 1307 65495 9898 53%
c u  6.52 17 100 0 20 5961 15 59207 7000 1.8 11 6 2 8 23% 1306 65495 9898 53%
c v  6.54 17 100 0 20 5961 15 59207 6265 1.8 11 6 2 8 23% 1306 65495 9898 53%
c w  6.55 17 100 0 20 5961 15 59207 6250 1.8 11 6 2 8 23% 1306 65495 9898 53%
c
c  seconds   switched     rate        size/glue tier1    binary        remaining
c         MB   reductions   conflicts       size  tier2     irredundant
c           level   restarts     redundant    glue   trail        variables
c
c =  6.68 17 100 0 20 5961 15 59207 6250 1.8 11 6 2 8 23% 1602 65444 9747 52%
c d  6.68 17 100 0 20 5961 15 59207 6081 1.8 11 6 2 8 23% 1291 65444 9747 52%
c t  6.68 17 100 0 20 5961 15 59207 6081 1.8 11 6 2 8 23% 1183 65444 9747 52%
c f  6.71 17 100 0 20 5961 15 59207 6081 1.8 11 6 2 8 23% 1211 65325 9762 52%
c -  6.85 17 99 0 21 6196 15 62679 7668 1.8 11 6 2 8 23% 1228 65317 9762 52%
c -  7.05 17 98 0 22 6635 15 67261 9960 1.8 11 6 2 8 22% 1249 65315 9762 52%
c i  7.06 17 96 0 22 6635 14 68635 10991 1.8 11 6 2 8 22% 1283 65315 9761 52%
c i  7.14 22 95 0 22 6812 14 70490 12616 1.8 11 6 2 8 21% 1295 65315 9760 52%
c o  7.15 22 95 0 22 6814 14 70582 12691 1.8 11 6 2 8 21% 1297 65315 9760 52%
c i  7.18 22 95 0 22 6901 14 71482 13473 1.8 11 6 2 8 21% 1311 65315 9759 52%
c -  7.21 22 95 0 23 6948 14 71951 11581 1.8 11 6 2 7 21% 1298 65313 9759 52%
c i  7.27 22 94 0 23 7072 14 73593 13013 1.8 11 6 2 7 21% 1313 65313 9758 52%
c -  7.41 22 93 0 24 7433 14 76748 13371 1.8 11 6 2 7 21% 1321 65313 9758 52%
c i  7.42 22 93 0 24 7475 14 77110 13682 1.8 11 6 2 7 21% 1326 65313 9755 52%
c i  7.45 22 93 0 24 7548 14 78083 14552 1.8 11 6 2 7 20% 1334 65313 9752 52%
c i  7.46 22 93 0 24 7562 14 78275 14722 1.8 11 6 2 7 20% 1338 65313 9750 52%
c i  7.46 22 93 0 24 7562 14 78276 14722 1.8 11 6 2 7 20% 1338 65313 9749 52%
c d  7.51 22 91 0 24 7659 14 80377 16060 1.8 11 6 2 7 20% 1354 65188 9729 52%
c d  7.51 22 91 0 24 7659 14 80377 16054 1.8 11 6 2 7 20% 1325 65180 9716 52%
c b  7.51 22 91 0 24 7659 14 80377 16054 1.8 11 6 2 7 20% 1325 65180 9715 52%
c
c  seconds  switched     rate         size/glue tier1    binary        remaining
c         MB  reductions   conflicts        size  tier2     irredundant
c          level   restarts      redundant    glue   trail        variables
c
c u  7.54 22 91 0 24 7659 14 80377 14412 1.8 11 6 2 7 20% 1334 65180 9715 52%
c v  7.57 22 91 0 24 7659 14 80377 13714 1.8 11 6 2 7 20% 1326 65180 9715 52%
c w  7.58 22 91 0 24 7659 14 80377 13701 1.8 11 6 2 7 20% 1326 65180 9715 52%
c d  7.68 22 91 0 24 7659 14 80377 13587 1.8 11 6 2 7 20% 1316 65170 9710 52%
c t  7.69 22 91 0 24 7659 14 80377 13587 1.8 11 6 2 7 20% 1294 65170 9710 52%
c f  7.70 18 91 0 24 7659 14 80377 13587 1.8 11 6 2 7 20% 1298 65152 9712 52%
c u  7.72 19 91 0 24 7659 14 80377 13287 1.8 11 6 2 7 20% 1309 65152 9712 52%
c v  7.74 20 91 0 24 7659 14 80377 12558 1.8 11 6 2 7 20% 1309 65152 9712 52%
c w  7.75 20 91 0 24 7659 14 80377 12543 1.8 11 6 2 7 20% 1309 65152 9712 52%
c x  7.77 20 91 0 24 7659 14 80377 12541 1.8 11 6 2 7 20% 1309 65129 9712 52%
c d  7.77 20 91 0 24 7659 14 80377 12526 1.8 11 6 2 7 20% 1305 65129 9710 52%
c t  7.78 20 91 0 24 7659 14 80377 12526 1.8 11 6 2 7 20% 1301 65129 9710 52%
c -  7.80 20 89 0 25 7666 13 81647 11453 1.8 11 6 2 7 19% 1310 65128 9710 52%
c i  7.80 20 89 0 25 7666 13 81736 11493 1.8 11 6 2 7 19% 1319 65128 9709 52%
c i  7.80 20 89 0 25 7668 13 82044 11730 1.8 11 6 2 7 19% 1331 65128 9704 52%
c i  7.80 20 89 0 25 7668 13 82047 11732 1.8 11 6 2 7 19% 1331 65128 9700 52%
c i  7.81 20 89 0 25 7668 13 82091 11754 1.8 11 6 2 7 19% 1337 65127 9699 52%
c i  7.81 20 89 0 25 7668 13 82102 11760 1.8 11 6 2 7 19% 1339 65127 9697 52%
c i  7.81 20 89 0 25 7668 13 82103 11760 1.8 11 6 2 7 19% 1339 65127 9695 52%
c i  7.81 20 89 0 25 7668 13 82106 11760 1.8 11 6 2 7 19% 1341 65127 9694 52%
c
c  seconds  switched     rate         size/glue tier1    binary        remaining
c         MB  reductions   conflicts        size  tier2     irredundant
c          level   restarts      redundant    glue   trail        variables
c
c i  7.81 20 89 0 25 7668 13 82115 11762 1.8 11 6 2 7 19% 1343 65127 9693 52%
c i  7.81 20 89 0 25 7668 13 82116 11762 1.8 11 6 2 7 19% 1343 65127 9692 52%
c i  7.81 20 89 0 25 7668 13 82117 11762 1.8 11 6 2 7 19% 1343 65127 9690 52%
c i  7.81 20 89 0 25 7668 13 82125 11766 1.8 11 6 2 7 19% 1345 65127 9688 52%
c }  7.81 20 89 0 25 7668 13 82129 11766 1.8 11 6 2 7 19% 1347 65127 9650 52%
c 0  7.81 20 89 0 25 7668 13 82129 11766 1.8 11 6 2 7 19% 1347 65127 9650 52%
c
c ---- [ result ] ------------------------------------------------------------
c
s UNSATISFIABLE
c
c ---- [ profiling ] ---------------------------------------------------------
c
c           5.03   64.45 %  search
c           5.03   64.45 %  focused
c           2.62   33.52 %  simplify
c           2.37   30.40 %  probe
c           0.83   10.67 %  sweep
c           0.77    9.86 %  vivify
c           0.33    4.20 %  eliminate
c           0.28    3.55 %  factor
c           0.25    3.17 %  congruence
c           0.19    2.39 %  substitute
c           0.14    1.77 %  preprocess
c           0.08    0.96 %  reduce
c           0.05    0.66 %  subsume
c           0.05    0.65 %  fastel
c           0.04    0.51 %  transitive
c           0.02    0.25 %  backbone
c           0.01    0.15 %  parse
c           0.01    0.11 %  lucky
c =============================================
c           7.81  100.00 %  total
c
c ---- [ statistics ] --------------------------------------------------------
c
c chronological:                          905                1 %  conflicts
c conflicts:                            82129            10521.27 per second
c congruent:                              261                1 %  variables
c decisions:                          1101528               13.41 per conflict
c eliminated:                            9737               52 %  variables
c factored:                              1541                8 %  variables
c fast_eliminated:                       5329               55 %  eliminated
c fast_strengthened:                        5                1 %  per strengthened
c fast_subsumed:                            3                0 %  per subsumed
c iterations:                              27                0 %  variables
c propagations:                      36938314          4732041    per second
c reductions:                              25             3285    interval
c reordered:                                4            20532    interval
c restarts:                              7668               11    interval
c strengthened:                           615                0 %  checks
c substituted:                            706                4 %  variables
c subsumed:                              1277                0 %  checks
c switched:                                 0                0    interval
c vivified:                             28626               22 %  checks
c
c ---- [ glue usage ] --------------------------------------------------------
c
c focused glue 2   used 40549 clauses 30.07% accumulated 60.84% tier1
c focused glue 3   used 17172 clauses 12.73% accumulated 73.57%
c focused glue 4-5 used 15772 clauses 11.70% accumulated 85.27%
c focused glue 6   used  5030 clauses  3.73% accumulated 89.00%
c focused glue 7   used  3809 clauses  2.82% accumulated 91.82% tier2
c
c ---- [ resources ] ---------------------------------------------------------
c
c maximum-resident-set-size:         23523328 bytes         22 MB
c process-time:                             8s               7.81 seconds
c
c ---- [ shutting down ] -----------------------------------------------------
c
c exit 20
